c "579879.clq"
p edge 249 3728
e 1 17
e 1 18
e 1 19
e 1 20
e 1 21
e 1 22
e 1 23
e 1 25
e 1 27
e 1 30
e 1 31
e 1 32
e 1 33
e 1 38
e 1 41
e 1 43
e 1 45
e 1 52
e 1 59
e 1 60
e 1 62
e 1 74
e 1 80
e 1 100
e 1 101
e 1 107
e 1 110
e 1 111
e 1 117
e 1 139
e 1 163
e 1 164
e 1 186
e 1 203
e 1 209
e 1 238
e 1 249
e 2 17
e 2 18
e 2 19
e 2 20
e 2 22
e 2 23
e 2 24
e 2 25
e 2 26
e 2 27
e 2 28
e 2 30
e 2 31
e 2 32
e 2 35
e 2 41
e 2 42
e 2 44
e 2 46
e 2 49
e 2 51
e 2 53
e 2 54
e 2 55
e 2 62
e 2 68
e 2 72
e 2 76
e 2 78
e 2 80
e 2 81
e 2 92
e 2 109
e 2 115
e 2 119
e 2 120
e 2 123
e 2 124
e 2 133
e 2 140
e 2 142
e 2 145
e 2 147
e 2 155
e 2 160
e 2 162
e 2 175
e 2 181
e 2 184
e 2 187
e 2 192
e 2 194
e 2 200
e 2 213
e 2 218
e 2 247
e 3 17
e 3 18
e 3 19
e 3 20
e 3 21
e 3 22
e 3 24
e 3 26
e 3 29
e 3 36
e 3 42
e 3 51
e 3 52
e 3 53
e 3 66
e 3 71
e 3 77
e 3 78
e 3 89
e 3 92
e 3 95
e 3 99
e 3 111
e 3 113
e 3 119
e 3 128
e 3 134
e 3 136
e 3 156
e 3 173
e 3 178
e 3 227
e 3 233
e 3 243
e 3 244
e 3 245
e 4 17
e 4 18
e 4 19
e 4 20
e 4 21
e 4 22
e 4 24
e 4 26
e 4 34
e 4 53
e 4 54
e 4 62
e 4 77
e 4 78
e 4 105
e 4 109
e 4 119
e 4 128
e 4 138
e 4 159
e 4 182
e 4 187
e 4 196
e 4 205
e 4 208
e 4 219
e 5 17
e 5 18
e 5 19
e 5 20
e 5 21
e 5 22
e 5 23
e 5 27
e 5 28
e 5 32
e 5 33
e 5 34
e 5 37
e 5 38
e 5 39
e 5 40
e 5 45
e 5 48
e 5 56
e 5 57
e 5 61
e 5 65
e 5 68
e 5 84
e 5 93
e 5 94
e 5 96
e 5 97
e 5 104
e 5 109
e 5 110
e 5 113
e 5 116
e 5 125
e 5 129
e 5 131
e 5 134
e 5 135
e 5 136
e 5 149
e 5 156
e 5 163
e 5 172
e 5 174
e 5 175
e 5 177
e 5 182
e 5 186
e 5 196
e 5 199
e 5 201
e 5 219
e 5 223
e 5 237
e 6 17
e 6 18
e 6 22
e 6 26
e 6 29
e 6 32
e 6 40
e 6 41
e 6 45
e 6 46
e 6 47
e 6 49
e 6 52
e 6 54
e 6 56
e 6 59
e 6 62
e 6 66
e 6 70
e 6 76
e 6 88
e 6 89
e 6 94
e 6 115
e 6 123
e 6 149
e 6 151
e 6 157
e 6 160
e 6 164
e 6 177
e 6 205
e 6 206
e 6 210
e 6 213
e 6 229
e 7 17
e 7 18
e 7 19
e 7 24
e 7 25
e 7 27
e 7 28
e 7 37
e 7 44
e 7 48
e 7 50
e 7 55
e 7 61
e 7 67
e 7 70
e 7 71
e 7 78
e 7 87
e 7 90
e 7 91
e 7 98
e 7 115
e 7 117
e 7 122
e 7 151
e 7 163
e 7 165
e 7 167
e 7 194
e 7 214
e 7 222
e 7 241
e 7 243
e 8 17
e 8 18
e 8 19
e 8 21
e 8 22
e 8 23
e 8 26
e 8 29
e 8 33
e 8 36
e 8 40
e 8 47
e 8 53
e 8 54
e 8 58
e 8 59
e 8 63
e 8 64
e 8 65
e 8 67
e 8 69
e 8 73
e 8 74
e 8 75
e 8 95
e 8 96
e 8 101
e 8 103
e 8 104
e 8 105
e 8 147
e 8 148
e 8 161
e 8 170
e 8 189
e 8 196
e 8 205
e 8 211
e 8 220
e 8 236
e 9 17
e 9 18
e 9 19
e 9 20
e 9 21
e 9 22
e 9 23
e 9 24
e 9 25
e 9 27
e 9 28
e 9 30
e 9 31
e 9 34
e 9 35
e 9 37
e 9 39
e 9 45
e 9 50
e 9 59
e 9 60
e 9 64
e 9 69
e 9 72
e 9 94
e 9 98
e 9 101
e 9 122
e 9 129
e 9 130
e 9 140
e 9 147
e 9 158
e 9 160
e 9 208
e 9 213
e 10 17
e 10 18
e 10 19
e 10 20
e 10 21
e 10 24
e 10 25
e 10 26
e 10 28
e 10 29
e 10 37
e 10 45
e 10 47
e 10 53
e 10 71
e 10 73
e 10 85
e 10 87
e 10 116
e 10 133
e 10 147
e 10 169
e 10 174
e 10 176
e 10 195
e 10 208
e 10 212
e 11 17
e 11 18
e 11 19
e 11 20
e 11 21
e 11 22
e 11 23
e 11 25
e 11 26
e 11 34
e 11 35
e 11 36
e 11 37
e 11 41
e 11 42
e 11 44
e 11 45
e 11 48
e 11 50
e 11 53
e 11 59
e 11 64
e 11 65
e 11 70
e 11 75
e 11 76
e 11 80
e 11 93
e 11 96
e 11 100
e 11 108
e 11 114
e 11 119
e 11 120
e 11 125
e 11 126
e 11 136
e 11 139
e 11 143
e 11 152
e 11 160
e 11 183
e 11 203
e 11 210
e 11 240
e 11 241
e 11 242
e 11 243
e 12 17
e 12 18
e 12 19
e 12 20
e 12 21
e 12 22
e 12 24
e 12 26
e 12 45
e 12 46
e 12 47
e 12 61
e 12 65
e 12 79
e 12 86
e 12 93
e 12 100
e 12 111
e 12 113
e 12 116
e 12 119
e 12 138
e 12 141
e 12 144
e 12 148
e 12 150
e 12 167
e 12 173
e 12 178
e 12 192
e 12 220
e 13 17
e 13 18
e 13 20
e 13 21
e 13 23
e 13 24
e 13 28
e 13 29
e 13 30
e 13 31
e 13 32
e 13 33
e 13 34
e 13 35
e 13 37
e 13 43
e 13 47
e 13 50
e 13 58
e 13 65
e 13 70
e 13 74
e 13 82
e 13 102
e 13 103
e 13 108
e 13 109
e 13 111
e 13 129
e 13 132
e 13 140
e 13 142
e 13 144
e 13 158
e 13 162
e 13 165
e 13 173
e 13 178
e 13 184
e 13 186
e 13 189
e 13 190
e 13 211
e 13 212
e 13 217
e 13 226
e 13 228
e 13 229
e 13 236
e 13 249
e 14 17
e 14 18
e 14 19
e 14 20
e 14 21
e 14 23
e 14 25
e 14 28
e 14 29
e 14 30
e 14 31
e 14 33
e 14 34
e 14 36
e 14 38
e 14 40
e 14 43
e 14 46
e 14 48
e 14 52
e 14 54
e 14 56
e 14 57
e 14 60
e 14 71
e 14 72
e 14 77
e 14 87
e 14 94
e 14 97
e 14 101
e 14 104
e 14 121
e 14 125
e 14 134
e 14 156
e 14 163
e 14 164
e 14 165
e 14 200
e 14 211
e 14 216
e 14 247
e 15 17
e 15 19
e 15 20
e 15 21
e 15 23
e 15 25
e 15 27
e 15 28
e 15 31
e 15 39
e 15 42
e 15 49
e 15 51
e 15 80
e 15 81
e 15 93
e 15 103
e 15 109
e 15 127
e 15 130
e 15 131
e 15 152
e 15 232
e 15 249
e 16 17
e 16 18
e 16 19
e 16 20
e 16 22
e 16 23
e 16 24
e 16 27
e 16 30
e 16 32
e 16 33
e 16 34
e 16 35
e 16 36
e 16 37
e 16 41
e 16 43
e 16 44
e 16 45
e 16 48
e 16 53
e 16 58
e 16 62
e 16 68
e 16 69
e 16 76
e 16 78
e 16 87
e 16 88
e 16 92
e 16 94
e 16 96
e 16 97
e 16 98
e 16 100
e 16 107
e 16 108
e 16 109
e 16 110
e 16 127
e 16 132
e 16 136
e 16 144
e 16 150
e 16 162
e 16 175
e 16 177
e 16 187
e 16 195
e 16 196
e 16 197
e 16 209
e 16 218
e 16 245
e 17 18
e 17 19
e 17 20
e 17 21
e 17 22
e 17 23
e 17 24
e 17 25
e 17 27
e 17 28
e 17 29
e 17 30
e 17 31
e 17 32
e 17 33
e 17 35
e 17 36
e 17 37
e 17 38
e 17 40
e 17 42
e 17 43
e 17 44
e 17 45
e 17 46
e 17 48
e 17 51
e 17 58
e 17 59
e 17 61
e 17 62
e 17 64
e 17 65
e 17 66
e 17 67
e 17 71
e 17 74
e 17 78
e 17 79
e 17 81
e 17 83
e 17 90
e 17 103
e 17 112
e 17 116
e 17 122
e 17 124
e 17 125
e 17 126
e 17 137
e 17 141
e 17 142
e 17 144
e 17 146
e 17 147
e 17 150
e 17 155
e 17 157
e 17 164
e 17 171
e 17 175
e 17 181
e 17 188
e 17 189
e 17 190
e 17 192
e 17 199
e 17 208
e 17 217
e 17 228
e 17 231
e 17 241
e 17 242
e 18 19
e 18 20
e 18 21
e 18 22
e 18 23
e 18 24
e 18 25
e 18 26
e 18 28
e 18 29
e 18 30
e 18 31
e 18 32
e 18 33
e 18 34
e 18 35
e 18 38
e 18 39
e 18 40
e 18 43
e 18 44
e 18 45
e 18 48
e 18 50
e 18 51
e 18 53
e 18 58
e 18 59
e 18 62
e 18 67
e 18 68
e 18 69
e 18 70
e 18 73
e 18 74
e 18 77
e 18 80
e 18 84
e 18 88
e 18 89
e 18 90
e 18 93
e 18 95
e 18 96
e 18 99
e 18 101
e 18 103
e 18 104
e 18 106
e 18 107
e 18 108
e 18 112
e 18 116
e 18 119
e 18 121
e 18 123
e 18 124
e 18 128
e 18 130
e 18 132
e 18 144
e 18 147
e 18 148
e 18 149
e 18 157
e 18 158
e 18 162
e 18 172
e 18 182
e 18 186
e 18 192
e 18 195
e 18 203
e 18 208
e 18 211
e 18 212
e 18 214
e 18 220
e 18 229
e 18 238
e 18 240
e 18 241
e 18 242
e 19 20
e 19 21
e 19 22
e 19 23
e 19 24
e 19 25
e 19 26
e 19 27
e 19 28
e 19 29
e 19 30
e 19 31
e 19 32
e 19 33
e 19 34
e 19 35
e 19 36
e 19 38
e 19 39
e 19 41
e 19 44
e 19 46
e 19 47
e 19 52
e 19 55
e 19 56
e 19 60
e 19 64
e 19 66
e 19 67
e 19 71
e 19 76
e 19 83
e 19 85
e 19 86
e 19 88
e 19 90
e 19 95
e 19 99
e 19 108
e 19 110
e 19 111
e 19 118
e 19 121
e 19 129
e 19 132
e 19 134
e 19 137
e 19 147
e 19 148
e 19 150
e 19 153
e 19 156
e 19 161
e 19 167
e 19 168
e 19 169
e 19 172
e 19 173
e 19 177
e 19 179
e 19 182
e 19 185
e 19 188
e 19 190
e 19 193
e 19 202
e 19 204
e 19 208
e 19 209
e 19 211
e 19 216
e 19 225
e 19 226
e 19 228
e 19 236
e 19 238
e 19 246
e 19 248
e 19 249
e 20 21
e 20 22
e 20 23
e 20 24
e 20 25
e 20 26
e 20 27
e 20 28
e 20 29
e 20 30
e 20 31
e 20 33
e 20 34
e 20 35
e 20 36
e 20 37
e 20 40
e 20 41
e 20 42
e 20 43
e 20 44
e 20 45
e 20 51
e 20 54
e 20 56
e 20 57
e 20 58
e 20 59
e 20 61
e 20 62
e 20 63
e 20 65
e 20 67
e 20 68
e 20 72
e 20 75
e 20 81
e 20 82
e 20 83
e 20 86
e 20 88
e 20 90
e 20 102
e 20 106
e 20 107
e 20 115
e 20 117
e 20 120
e 20 123
e 20 133
e 20 135
e 20 139
e 20 155
e 20 167
e 20 168
e 20 169
e 20 172
e 20 176
e 20 178
e 20 179
e 20 180
e 20 181
e 20 186
e 20 195
e 20 198
e 20 202
e 20 204
e 20 206
e 20 211
e 20 215
e 20 220
e 20 221
e 20 222
e 20 227
e 20 229
e 20 231
e 20 239
e 20 242
e 20 244
e 21 22
e 21 23
e 21 24
e 21 25
e 21 26
e 21 27
e 21 29
e 21 30
e 21 33
e 21 34
e 21 36
e 21 37
e 21 39
e 21 40
e 21 42
e 21 43
e 21 44
e 21 45
e 21 46
e 21 48
e 21 49
e 21 50
e 21 52
e 21 54
e 21 55
e 21 57
e 21 58
e 21 60
e 21 61
e 21 66
e 21 69
e 21 77
e 21 79
e 21 80
e 21 82
e 21 87
e 21 92
e 21 93
e 21 95
e 21 100
e 21 101
e 21 102
e 21 105
e 21 107
e 21 110
e 21 111
e 21 114
e 21 115
e 21 118
e 21 123
e 21 126
e 21 127
e 21 128
e 21 129
e 21 131
e 21 133
e 21 134
e 21 135
e 21 137
e 21 145
e 21 153
e 21 156
e 21 162
e 21 173
e 21 174
e 21 178
e 21 181
e 21 186
e 21 189
e 21 191
e 21 193
e 21 195
e 21 197
e 21 198
e 21 201
e 21 207
e 21 211
e 21 212
e 21 218
e 21 219
e 21 225
e 21 231
e 21 234
e 21 236
e 21 248
e 22 23
e 22 24
e 22 25
e 22 26
e 22 27
e 22 28
e 22 31
e 22 33
e 22 34
e 22 36
e 22 41
e 22 42
e 22 43
e 22 44
e 22 46
e 22 52
e 22 54
e 22 62
e 22 65
e 22 69
e 22 70
e 22 71
e 22 72
e 22 74
e 22 76
e 22 81
e 22 82
e 22 83
e 22 84
e 22 88
e 22 94
e 22 99
e 22 107
e 22 108
e 22 111
e 22 112
e 22 123
e 22 140
e 22 142
e 22 146
e 22 149
e 22 150
e 22 151
e 22 153
e 22 154
e 22 159
e 22 163
e 22 165
e 22 166
e 22 168
e 22 175
e 22 179
e 22 180
e 22 196
e 22 202
e 22 212
e 22 213
e 22 217
e 22 221
e 22 224
e 22 229
e 22 235
e 22 237
e 22 242
e 23 24
e 23 25
e 23 26
e 23 27
e 23 29
e 23 31
e 23 32
e 23 33
e 23 35
e 23 38
e 23 42
e 23 43
e 23 47
e 23 51
e 23 54
e 23 61
e 23 64
e 23 69
e 23 73
e 23 74
e 23 75
e 23 78
e 23 82
e 23 84
e 23 86
e 23 87
e 23 88
e 23 90
e 23 91
e 23 93
e 23 96
e 23 97
e 23 98
e 23 103
e 23 104
e 23 106
e 23 108
e 23 113
e 23 114
e 23 119
e 23 120
e 23 123
e 23 126
e 23 129
e 23 137
e 23 144
e 23 146
e 23 150
e 23 156
e 23 160
e 23 161
e 23 166
e 23 178
e 23 182
e 23 184
e 23 187
e 23 191
e 23 198
e 23 199
e 23 202
e 23 214
e 23 220
e 23 222
e 23 231
e 23 232
e 23 233
e 23 238
e 23 246
e 23 247
e 24 25
e 24 26
e 24 27
e 24 28
e 24 29
e 24 30
e 24 31
e 24 32
e 24 34
e 24 37
e 24 40
e 24 42
e 24 44
e 24 45
e 24 47
e 24 48
e 24 52
e 24 60
e 24 63
e 24 64
e 24 67
e 24 69
e 24 70
e 24 76
e 24 78
e 24 79
e 24 92
e 24 102
e 24 105
e 24 106
e 24 107
e 24 109
e 24 110
e 24 114
e 24 118
e 24 127
e 24 131
e 24 133
e 24 136
e 24 143
e 24 144
e 24 146
e 24 148
e 24 152
e 24 164
e 24 166
e 24 180
e 24 188
e 24 201
e 24 202
e 24 204
e 24 206
e 24 209
e 24 210
e 24 218
e 24 221
e 24 223
e 24 231
e 24 239
e 25 26
e 25 27
e 25 28
e 25 29
e 25 30
e 25 31
e 25 32
e 25 34
e 25 35
e 25 37
e 25 38
e 25 39
e 25 40
e 25 42
e 25 47
e 25 48
e 25 49
e 25 50
e 25 51
e 25 55
e 25 57
e 25 58
e 25 59
e 25 64
e 25 65
e 25 68
e 25 73
e 25 74
e 25 75
e 25 76
e 25 77
e 25 79
e 25 81
e 25 82
e 25 88
e 25 89
e 25 90
e 25 91
e 25 97
e 25 100
e 25 116
e 25 117
e 25 119
e 25 125
e 25 127
e 25 135
e 25 139
e 25 140
e 25 142
e 25 147
e 25 163
e 25 164
e 25 172
e 25 177
e 25 179
e 25 189
e 25 200
e 25 203
e 25 204
e 25 210
e 25 211
e 25 214
e 25 228
e 25 240
e 25 243
e 25 245
e 26 27
e 26 29
e 26 30
e 26 31
e 26 33
e 26 34
e 26 35
e 26 36
e 26 38
e 26 39
e 26 41
e 26 44
e 26 45
e 26 48
e 26 50
e 26 52
e 26 55
e 26 56
e 26 60
e 26 61
e 26 63
e 26 69
e 26 71
e 26 73
e 26 74
e 26 79
e 26 80
e 26 82
e 26 83
e 26 84
e 26 86
e 26 89
e 26 91
e 26 93
e 26 94
e 26 98
e 26 109
e 26 110
e 26 118
e 26 123
e 26 129
e 26 141
e 26 152
e 26 155
e 26 161
e 26 168
e 26 180
e 26 183
e 26 191
e 26 192
e 26 194
e 26 198
e 26 199
e 26 207
e 26 209
e 26 211
e 26 215
e 26 230
e 26 231
e 26 233
e 26 236
e 26 237
e 26 243
e 27 28
e 27 32
e 27 39
e 27 41
e 27 42
e 27 46
e 27 49
e 27 51
e 27 53
e 27 54
e 27 56
e 27 57
e 27 58
e 27 59
e 27 63
e 27 67
e 27 68
e 27 74
e 27 81
e 27 84
e 27 87
e 27 93
e 27 95
e 27 101
e 27 107
e 27 115
e 27 121
e 27 131
e 27 134
e 27 138
e 27 139
e 27 148
e 27 156
e 27 165
e 27 175
e 27 187
e 27 206
e 27 214
e 27 215
e 27 221
e 27 224
e 27 231
e 27 232
e 27 235
e 27 237
e 28 29
e 28 30
e 28 31
e 28 32
e 28 37
e 28 38
e 28 40
e 28 46
e 28 47
e 28 49
e 28 50
e 28 51
e 28 57
e 28 58
e 28 64
e 28 65
e 28 66
e 28 68
e 28 69
e 28 70
e 28 73
e 28 78
e 28 79
e 28 84
e 28 86
e 28 89
e 28 90
e 28 99
e 28 100
e 28 103
e 28 104
e 28 109
e 28 110
e 28 112
e 28 122
e 28 123
e 28 126
e 28 127
e 28 128
e 28 133
e 28 134
e 28 140
e 28 143
e 28 144
e 28 146
e 28 150
e 28 154
e 28 155
e 28 160
e 28 161
e 28 169
e 28 173
e 28 176
e 28 178
e 28 184
e 28 190
e 28 195
e 28 198
e 28 214
e 28 218
e 28 221
e 28 230
e 28 235
e 28 244
e 28 247
e 29 30
e 29 32
e 29 33
e 29 35
e 29 36
e 29 37
e 29 38
e 29 39
e 29 42
e 29 43
e 29 44
e 29 51
e 29 52
e 29 55
e 29 57
e 29 70
e 29 71
e 29 75
e 29 79
e 29 81
e 29 86
e 29 88
e 29 90
e 29 91
e 29 94
e 29 96
e 29 98
e 29 101
e 29 105
e 29 117
e 29 126
e 29 127
e 29 129
e 29 141
e 29 143
e 29 154
e 29 161
e 29 164
e 29 172
e 29 184
e 29 186
e 29 188
e 29 201
e 29 207
e 29 216
e 29 220
e 30 33
e 30 35
e 30 36
e 30 37
e 30 38
e 30 39
e 30 40
e 30 45
e 30 47
e 30 49
e 30 51
e 30 57
e 30 61
e 30 66
e 30 73
e 30 75
e 30 78
e 30 83
e 30 85
e 30 89
e 30 100
e 30 112
e 30 124
e 30 131
e 30 132
e 30 142
e 30 143
e 30 151
e 30 177
e 30 183
e 30 216
e 30 237
e 30 238
e 30 246
e 30 249
e 31 32
e 31 35
e 31 36
e 31 38
e 31 39
e 31 40
e 31 41
e 31 46
e 31 48
e 31 49
e 31 52
e 31 53
e 31 55
e 31 56
e 31 57
e 31 58
e 31 59
e 31 66
e 31 68
e 31 69
e 31 71
e 31 72
e 31 77
e 31 86
e 31 89
e 31 90
e 31 96
e 31 100
e 31 104
e 31 122
e 31 145
e 31 147
e 31 149
e 31 154
e 31 163
e 31 166
e 31 168
e 31 175
e 31 179
e 31 194
e 31 205
e 31 208
e 31 212
e 31 235
e 31 242
e 31 248
e 32 34
e 32 39
e 32 40
e 32 41
e 32 47
e 32 48
e 32 49
e 32 52
e 32 54
e 32 56
e 32 62
e 32 64
e 32 67
e 32 68
e 32 72
e 32 73
e 32 75
e 32 76
e 32 79
e 32 81
e 32 82
e 32 85
e 32 88
e 32 89
e 32 93
e 32 95
e 32 97
e 32 108
e 32 109
e 32 120
e 32 121
e 32 122
e 32 124
e 32 130
e 32 133
e 32 142
e 32 153
e 32 172
e 32 174
e 32 183
e 32 185
e 32 190
e 32 192
e 32 200
e 32 202
e 32 224
e 32 225
e 32 233
e 32 234
e 32 235
e 32 249
e 33 38
e 33 40
e 33 41
e 33 46
e 33 50
e 33 57
e 33 60
e 33 69
e 33 73
e 33 80
e 33 89
e 33 95
e 33 96
e 33 111
e 33 132
e 33 136
e 33 145
e 33 154
e 33 160
e 33 173
e 33 183
e 33 205
e 33 206
e 33 210
e 33 223
e 33 226
e 33 228
e 33 245
e 34 35
e 34 36
e 34 41
e 34 43
e 34 45
e 34 50
e 34 58
e 34 61
e 34 65
e 34 69
e 34 77
e 34 80
e 34 82
e 34 85
e 34 93
e 34 97
e 34 98
e 34 103
e 34 104
e 34 106
e 34 107
e 34 119
e 34 121
e 34 132
e 34 135
e 34 145
e 34 155
e 34 157
e 34 164
e 34 173
e 34 182
e 34 186
e 34 194
e 34 196
e 34 203
e 34 204
e 34 208
e 34 209
e 34 226
e 34 230
e 34 234
e 34 237
e 34 239
e 34 242
e 34 245
e 34 248
e 34 249
e 35 36
e 35 37
e 35 38
e 35 40
e 35 41
e 35 52
e 35 54
e 35 55
e 35 64
e 35 66
e 35 67
e 35 74
e 35 77
e 35 89
e 35 93
e 35 99
e 35 112
e 35 115
e 35 125
e 35 134
e 35 138
e 35 140
e 35 167
e 35 182
e 35 184
e 35 185
e 35 191
e 35 201
e 35 229
e 35 233
e 35 234
e 35 235
e 35 240
e 36 38
e 36 39
e 36 42
e 36 43
e 36 44
e 36 48
e 36 52
e 36 56
e 36 57
e 36 59
e 36 62
e 36 63
e 36 65
e 36 70
e 36 72
e 36 74
e 36 76
e 36 80
e 36 85
e 36 86
e 36 89
e 36 90
e 36 97
e 36 98
e 36 103
e 36 112
e 36 113
e 36 118
e 36 119
e 36 120
e 36 124
e 36 125
e 36 129
e 36 132
e 36 135
e 36 137
e 36 140
e 36 143
e 36 150
e 36 151
e 36 158
e 36 170
e 36 174
e 36 178
e 36 179
e 36 182
e 36 184
e 36 185
e 36 186
e 36 189
e 36 193
e 36 215
e 36 227
e 36 228
e 36 235
e 37 39
e 37 41
e 37 51
e 37 54
e 37 57
e 37 59
e 37 61
e 37 63
e 37 67
e 37 70
e 37 73
e 37 75
e 37 84
e 37 86
e 37 87
e 37 90
e 37 105
e 37 107
e 37 110
e 37 120
e 37 121
e 37 122
e 37 123
e 37 125
e 37 129
e 37 133
e 37 134
e 37 137
e 37 138
e 37 140
e 37 152
e 37 158
e 37 164
e 37 165
e 37 171
e 37 179
e 37 192
e 37 195
e 37 199
e 37 209
e 37 214
e 37 217
e 37 223
e 37 234
e 37 244
e 38 39
e 38 42
e 38 43
e 38 44
e 38 46
e 38 50
e 38 53
e 38 59
e 38 62
e 38 66
e 38 67
e 38 72
e 38 75
e 38 76
e 38 78
e 38 79
e 38 80
e 38 83
e 38 85
e 38 87
e 38 89
e 38 92
e 38 116
e 38 117
e 38 121
e 38 125
e 38 126
e 38 128
e 38 133
e 38 135
e 38 138
e 38 139
e 38 141
e 38 148
e 38 155
e 38 157
e 38 160
e 38 166
e 38 168
e 38 170
e 38 208
e 38 215
e 38 221
e 38 224
e 38 234
e 38 242
e 39 43
e 39 44
e 39 46
e 39 49
e 39 60
e 39 70
e 39 73
e 39 79
e 39 81
e 39 84
e 39 87
e 39 91
e 39 94
e 39 95
e 39 98
e 39 100
e 39 107
e 39 113
e 39 117
e 39 123
e 39 124
e 39 131
e 39 132
e 39 135
e 39 152
e 39 154
e 39 158
e 39 177
e 39 181
e 39 193
e 39 194
e 39 205
e 39 216
e 39 217
e 39 218
e 39 232
e 39 247
e 40 47
e 40 48
e 40 50
e 40 53
e 40 55
e 40 60
e 40 63
e 40 67
e 40 68
e 40 73
e 40 74
e 40 80
e 40 81
e 40 82
e 40 87
e 40 102
e 40 103
e 40 107
e 40 111
e 40 117
e 40 119
e 40 134
e 40 135
e 40 136
e 40 144
e 40 158
e 40 159
e 40 162
e 40 166
e 40 168
e 40 202
e 40 210
e 40 212
e 40 221
e 40 224
e 40 237
e 41 42
e 41 47
e 41 48
e 41 49
e 41 51
e 41 52
e 41 53
e 41 63
e 41 68
e 41 72
e 41 81
e 41 83
e 41 84
e 41 87
e 41 102
e 41 104
e 41 106
e 41 111
e 41 115
e 41 117
e 41 126
e 41 133
e 41 137
e 41 152
e 41 159
e 41 160
e 41 168
e 41 171
e 41 175
e 41 176
e 41 188
e 41 197
e 41 198
e 41 204
e 41 205
e 41 207
e 41 217
e 41 223
e 41 233
e 41 234
e 41 235
e 41 236
e 41 237
e 42 43
e 42 49
e 42 50
e 42 55
e 42 56
e 42 58
e 42 59
e 42 60
e 42 64
e 42 69
e 42 73
e 42 85
e 42 90
e 42 92
e 42 96
e 42 103
e 42 104
e 42 105
e 42 107
e 42 115
e 42 118
e 42 122
e 42 124
e 42 131
e 42 135
e 42 138
e 42 147
e 42 149
e 42 168
e 42 176
e 42 179
e 42 190
e 42 198
e 42 222
e 42 233
e 42 234
e 42 236
e 43 46
e 43 50
e 43 53
e 43 54
e 43 56
e 43 57
e 43 60
e 43 62
e 43 65
e 43 74
e 43 75
e 43 77
e 43 85
e 43 90
e 43 97
e 43 106
e 43 112
e 43 113
e 43 117
e 43 127
e 43 137
e 43 140
e 43 148
e 43 151
e 43 153
e 43 157
e 43 158
e 43 165
e 43 166
e 43 167
e 43 173
e 43 178
e 43 191
e 43 208
e 43 211
e 43 215
e 43 218
e 43 222
e 43 229
e 43 237
e 44 46
e 44 47
e 44 49
e 44 55
e 44 56
e 44 63
e 44 65
e 44 66
e 44 67
e 44 71
e 44 74
e 44 80
e 44 81
e 44 82
e 44 86
e 44 88
e 44 91
e 44 93
e 44 99
e 44 112
e 44 125
e 44 127
e 44 129
e 44 133
e 44 138
e 44 144
e 44 146
e 44 151
e 44 153
e 44 157
e 44 159
e 44 168
e 44 169
e 44 171
e 44 177
e 44 181
e 44 199
e 44 203
e 44 206
e 44 213
e 44 214
e 44 217
e 44 232
e 44 237
e 44 245
e 44 249
e 45 61
e 45 62
e 45 72
e 45 75
e 45 79
e 45 84
e 45 87
e 45 92
e 45 108
e 45 116
e 45 120
e 45 126
e 45 127
e 45 128
e 45 139
e 45 149
e 45 161
e 45 163
e 45 180
e 45 183
e 45 185
e 45 187
e 45 202
e 45 210
e 45 230
e 45 241
e 45 244
e 46 47
e 46 49
e 46 50
e 46 51
e 46 52
e 46 63
e 46 72
e 46 81
e 46 88
e 46 92
e 46 95
e 46 96
e 46 97
e 46 98
e 46 106
e 46 121
e 46 131
e 46 138
e 46 145
e 46 146
e 46 149
e 46 154
e 46 155
e 46 156
e 46 157
e 46 162
e 46 170
e 46 174
e 46 187
e 46 191
e 46 217
e 46 223
e 46 225
e 46 231
e 46 236
e 46 246
e 47 51
e 47 53
e 47 55
e 47 63
e 47 66
e 47 68
e 47 76
e 47 81
e 47 83
e 47 85
e 47 92
e 47 94
e 47 101
e 47 106
e 47 108
e 47 113
e 47 119
e 47 121
e 47 122
e 47 132
e 47 134
e 47 136
e 47 138
e 47 158
e 47 164
e 47 166
e 47 167
e 47 173
e 47 174
e 47 182
e 47 183
e 47 191
e 47 194
e 47 200
e 47 207
e 47 218
e 47 219
e 47 241
e 47 248
e 48 49
e 48 55
e 48 58
e 48 59
e 48 61
e 48 62
e 48 64
e 48 68
e 48 75
e 48 79
e 48 88
e 48 91
e 48 109
e 48 116
e 48 131
e 48 156
e 48 165
e 48 171
e 48 173
e 48 177
e 48 180
e 48 200
e 48 205
e 48 220
e 48 247
e 49 61
e 49 68
e 49 69
e 49 95
e 49 99
e 49 108
e 49 113
e 49 115
e 49 117
e 49 122
e 49 184
e 49 193
e 49 196
e 49 204
e 49 208
e 49 210
e 49 212
e 49 213
e 50 54
e 50 55
e 50 56
e 50 57
e 50 58
e 50 60
e 50 63
e 50 64
e 50 69
e 50 76
e 50 85
e 50 86
e 50 94
e 50 95
e 50 96
e 50 101
e 50 111
e 50 115
e 50 118
e 50 119
e 50 137
e 50 138
e 50 151
e 50 153
e 50 155
e 50 158
e 50 166
e 50 170
e 50 171
e 50 189
e 50 191
e 50 198
e 50 201
e 50 203
e 50 218
e 50 223
e 50 229
e 50 239
e 51 53
e 51 54
e 51 61
e 51 71
e 51 77
e 51 105
e 51 125
e 51 130
e 51 132
e 51 136
e 51 138
e 51 139
e 51 153
e 51 156
e 51 202
e 51 208
e 51 219
e 51 224
e 51 225
e 51 231
e 51 236
e 51 240
e 51 241
e 51 243
e 52 55
e 52 56
e 52 58
e 52 60
e 52 63
e 52 64
e 52 65
e 52 66
e 52 67
e 52 70
e 52 71
e 52 77
e 52 78
e 52 79
e 52 80
e 52 82
e 52 83
e 52 91
e 52 100
e 52 102
e 52 105
e 52 112
e 52 114
e 52 116
e 52 120
e 52 129
e 52 155
e 52 157
e 52 162
e 52 169
e 52 180
e 52 185
e 52 187
e 52 192
e 52 195
e 52 196
e 52 201
e 52 209
e 52 219
e 52 228
e 53 56
e 53 63
e 53 64
e 53 76
e 53 86
e 53 96
e 53 114
e 53 121
e 53 129
e 53 139
e 53 153
e 53 166
e 53 168
e 53 179
e 53 185
e 53 201
e 53 204
e 53 224
e 53 232
e 53 234
e 53 241
e 54 60
e 54 66
e 54 74
e 54 82
e 54 83
e 54 98
e 54 102
e 54 105
e 54 107
e 54 117
e 54 119
e 54 128
e 54 131
e 54 134
e 54 137
e 54 141
e 54 148
e 54 155
e 54 174
e 54 181
e 54 219
e 54 220
e 54 236
e 54 246
e 55 65
e 55 70
e 55 71
e 55 72
e 55 78
e 55 132
e 55 140
e 55 149
e 55 160
e 55 161
e 55 172
e 55 216
e 55 222
e 55 237
e 55 239
e 55 240
e 56 57
e 56 62
e 56 67
e 56 77
e 56 84
e 56 112
e 56 117
e 56 123
e 56 125
e 56 141
e 56 159
e 56 161
e 56 170
e 56 174
e 56 175
e 56 176
e 56 181
e 56 205
e 56 238
e 56 246
e 57 66
e 57 70
e 57 76
e 57 85
e 57 86
e 57 89
e 57 97
e 57 102
e 57 104
e 57 113
e 57 114
e 57 118
e 57 135
e 57 150
e 57 151
e 57 168
e 57 174
e 57 177
e 57 178
e 57 181
e 57 198
e 57 216
e 57 227
e 57 248
e 58 61
e 58 68
e 58 78
e 58 82
e 58 84
e 58 87
e 58 93
e 58 96
e 58 99
e 58 100
e 58 104
e 58 106
e 58 114
e 58 138
e 58 144
e 58 159
e 58 174
e 58 176
e 58 189
e 58 196
e 59 60
e 59 63
e 59 73
e 59 84
e 59 88
e 59 98
e 59 105
e 59 120
e 59 127
e 59 128
e 59 176
e 59 206
e 59 232
e 60 70
e 60 84
e 60 91
e 60 103
e 60 104
e 60 112
e 60 135
e 60 136
e 60 234
e 60 248
e 61 75
e 61 79
e 61 87
e 61 101
e 61 111
e 61 129
e 61 162
e 62 75
e 62 79
e 62 80
e 62 91
e 62 92
e 62 99
e 62 110
e 62 116
e 62 120
e 62 130
e 62 135
e 62 139
e 62 152
e 62 167
e 62 175
e 62 182
e 62 186
e 62 195
e 62 207
e 62 247
e 63 66
e 63 75
e 63 113
e 63 114
e 63 135
e 63 158
e 63 162
e 63 187
e 63 209
e 63 212
e 63 219
e 63 224
e 63 238
e 63 248
e 64 83
e 64 91
e 64 98
e 64 109
e 64 125
e 64 130
e 64 134
e 64 151
e 64 153
e 64 155
e 64 163
e 64 175
e 64 189
e 64 193
e 64 213
e 64 215
e 64 216
e 64 222
e 64 226
e 64 227
e 64 249
e 65 85
e 65 98
e 65 109
e 65 129
e 65 152
e 65 164
e 65 173
e 65 178
e 65 194
e 65 219
e 65 229
e 65 231
e 65 238
e 65 243
e 65 246
e 66 72
e 66 77
e 66 86
e 66 89
e 66 92
e 66 99
e 66 111
e 66 120
e 66 137
e 66 139
e 66 141
e 66 151
e 66 154
e 66 181
e 66 182
e 66 226
e 66 242
e 67 71
e 67 80
e 67 82
e 67 86
e 67 91
e 67 92
e 67 94
e 67 98
e 67 99
e 67 100
e 67 102
e 67 106
e 67 122
e 67 124
e 67 125
e 67 136
e 67 139
e 67 145
e 67 147
e 67 154
e 67 158
e 67 163
e 67 165
e 67 175
e 67 177
e 67 179
e 67 185
e 67 188
e 67 212
e 67 213
e 67 225
e 67 232
e 67 242
e 67 249
e 68 72
e 68 73
e 68 77
e 68 78
e 68 84
e 68 88
e 68 94
e 68 108
e 68 115
e 68 121
e 68 148
e 68 154
e 68 157
e 68 161
e 68 163
e 68 175
e 68 186
e 68 193
e 68 211
e 68 243
e 69 71
e 69 77
e 69 78
e 69 102
e 69 108
e 69 127
e 69 133
e 69 140
e 69 141
e 69 143
e 69 154
e 69 161
e 69 164
e 69 177
e 69 178
e 69 197
e 69 217
e 69 221
e 69 230
e 70 72
e 70 95
e 70 99
e 70 130
e 70 170
e 70 199
e 70 210
e 70 220
e 70 233
e 70 240
e 70 247
e 71 85
e 71 90
e 71 91
e 71 97
e 71 106
e 71 108
e 71 110
e 71 114
e 71 124
e 71 127
e 71 132
e 71 140
e 71 156
e 71 176
e 71 192
e 71 203
e 71 211
e 71 214
e 71 231
e 71 232
e 71 240
e 72 82
e 72 83
e 72 85
e 72 90
e 72 95
e 72 97
e 72 115
e 72 121
e 72 122
e 72 130
e 72 146
e 72 160
e 72 165
e 72 167
e 72 172
e 72 178
e 72 203
e 72 217
e 72 219
e 72 227
e 72 246
e 73 83
e 73 92
e 73 94
e 73 104
e 73 112
e 73 113
e 73 141
e 73 142
e 73 149
e 73 151
e 73 158
e 73 185
e 73 190
e 73 193
e 73 197
e 73 206
e 73 209
e 74 76
e 74 92
e 74 95
e 74 100
e 74 101
e 74 105
e 74 110
e 74 121
e 74 125
e 74 126
e 74 133
e 74 136
e 74 142
e 74 145
e 74 147
e 74 150
e 74 164
e 74 170
e 74 183
e 74 192
e 74 197
e 74 199
e 74 209
e 74 232
e 74 239
e 75 91
e 75 97
e 75 105
e 75 110
e 75 117
e 75 142
e 75 145
e 75 146
e 75 176
e 75 191
e 75 202
e 75 216
e 75 236
e 76 103
e 76 110
e 76 124
e 76 130
e 76 133
e 76 134
e 76 143
e 76 150
e 76 159
e 76 182
e 76 193
e 76 194
e 76 210
e 76 239
e 76 245
e 77 81
e 77 83
e 77 85
e 77 91
e 77 92
e 77 100
e 77 101
e 77 102
e 77 119
e 77 120
e 77 121
e 77 131
e 77 161
e 77 167
e 77 169
e 77 199
e 77 207
e 77 217
e 77 220
e 77 221
e 77 226
e 78 105
e 78 110
e 78 113
e 78 157
e 78 160
e 78 170
e 78 172
e 78 185
e 78 188
e 78 221
e 78 228
e 78 246
e 79 102
e 79 115
e 79 128
e 79 141
e 79 150
e 79 155
e 79 200
e 79 201
e 79 222
e 79 228
e 79 233
e 79 240
e 79 241
e 79 242
e 80 97
e 80 102
e 80 122
e 80 128
e 80 131
e 80 137
e 80 149
e 80 159
e 80 168
e 80 173
e 80 195
e 80 196
e 80 226
e 81 88
e 81 95
e 81 97
e 81 99
e 81 105
e 81 106
e 81 110
e 81 128
e 81 130
e 81 146
e 81 159
e 81 165
e 81 169
e 81 184
e 81 188
e 81 189
e 81 193
e 81 195
e 81 200
e 81 202
e 81 218
e 81 230
e 81 248
e 82 83
e 82 103
e 82 113
e 82 130
e 82 145
e 82 147
e 82 154
e 82 156
e 82 166
e 82 170
e 82 201
e 82 204
e 82 233
e 83 101
e 83 114
e 83 115
e 83 118
e 83 123
e 83 128
e 83 142
e 83 146
e 83 149
e 83 161
e 83 171
e 83 180
e 83 205
e 83 210
e 83 220
e 83 249
e 84 114
e 84 132
e 84 144
e 84 149
e 84 151
e 84 152
e 84 160
e 84 172
e 84 181
e 84 192
e 84 193
e 84 196
e 84 198
e 84 206
e 84 220
e 84 234
e 85 98
e 85 103
e 85 114
e 85 122
e 85 167
e 85 171
e 85 173
e 85 180
e 85 184
e 85 204
e 85 212
e 85 225
e 86 87
e 86 104
e 86 112
e 86 113
e 86 118
e 86 121
e 86 123
e 86 124
e 86 141
e 86 143
e 86 187
e 86 193
e 86 194
e 86 200
e 86 201
e 86 204
e 86 205
e 86 207
e 86 222
e 86 225
e 86 229
e 86 230
e 86 244
e 86 247
e 87 93
e 87 96
e 87 101
e 87 105
e 87 107
e 87 111
e 87 114
e 87 123
e 87 152
e 87 162
e 87 183
e 87 221
e 87 230
e 87 238
e 87 240
e 87 242
e 87 246
e 87 247
e 88 89
e 88 94
e 88 99
e 88 126
e 88 127
e 88 137
e 88 140
e 88 143
e 88 149
e 88 174
e 88 187
e 88 195
e 88 202
e 88 232
e 88 242
e 89 138
e 89 139
e 89 146
e 89 167
e 89 185
e 89 215
e 89 218
e 89 225
e 89 226
e 89 230
e 89 235
e 89 238
e 89 248
e 90 108
e 90 128
e 90 135
e 90 142
e 90 147
e 90 150
e 90 161
e 90 167
e 90 170
e 90 173
e 90 181
e 90 196
e 90 207
e 90 214
e 90 238
e 91 93
e 91 104
e 91 107
e 91 109
e 91 111
e 91 115
e 91 118
e 91 126
e 91 142
e 91 148
e 91 150
e 91 167
e 91 187
e 91 239
e 91 247
e 92 94
e 92 103
e 92 120
e 92 124
e 92 136
e 92 139
e 92 164
e 92 171
e 92 181
e 92 183
e 92 185
e 92 186
e 92 216
e 92 219
e 92 220
e 92 227
e 92 228
e 92 232
e 92 233
e 92 235
e 92 248
e 93 99
e 93 106
e 93 130
e 93 131
e 93 144
e 93 153
e 93 163
e 93 179
e 93 181
e 93 192
e 93 195
e 93 199
e 93 216
e 93 245
e 94 96
e 94 100
e 94 101
e 94 132
e 94 138
e 94 143
e 94 157
e 94 159
e 94 165
e 94 177
e 94 182
e 94 184
e 94 214
e 94 223
e 94 229
e 94 244
e 95 153
e 95 164
e 95 169
e 95 197
e 95 200
e 95 224
e 95 225
e 96 114
e 96 118
e 96 122
e 96 126
e 96 131
e 96 170
e 96 204
e 96 213
e 96 215
e 97 116
e 97 125
e 97 191
e 98 102
e 98 106
e 98 114
e 98 116
e 98 122
e 98 130
e 98 136
e 98 157
e 98 166
e 98 168
e 98 169
e 98 184
e 98 194
e 98 238
e 99 102
e 99 108
e 99 109
e 99 145
e 99 148
e 99 169
e 99 192
e 99 206
e 99 217
e 100 116
e 100 117
e 100 133
e 100 152
e 100 156
e 100 217
e 100 218
e 100 241
e 101 113
e 101 141
e 101 142
e 101 145
e 101 148
e 101 149
e 101 152
e 101 153
e 101 161
e 101 240
e 102 111
e 102 142
e 102 144
e 102 164
e 102 167
e 102 174
e 102 175
e 102 193
e 102 223
e 102 235
e 103 112
e 103 118
e 103 143
e 103 171
e 103 180
e 103 208
e 103 220
e 104 116
e 104 127
e 104 154
e 104 178
e 104 195
e 105 106
e 105 117
e 105 118
e 105 130
e 105 133
e 105 171
e 105 177
e 105 178
e 105 182
e 105 185
e 105 188
e 105 215
e 105 243
e 105 245
e 106 131
e 106 143
e 106 149
e 106 171
e 106 180
e 106 202
e 106 213
e 106 226
e 106 236
e 107 124
e 107 159
e 108 109
e 108 139
e 108 145
e 108 146
e 108 151
e 108 174
e 108 215
e 108 227
e 109 136
e 109 137
e 109 146
e 109 169
e 109 184
e 109 189
e 109 207
e 109 209
e 109 223
e 109 227
e 109 230
e 109 235
e 110 123
e 110 128
e 110 183
e 110 190
e 111 112
e 111 128
e 111 135
e 111 140
e 111 143
e 111 144
e 111 182
e 111 183
e 111 187
e 111 188
e 111 189
e 111 224
e 111 230
e 111 243
e 112 118
e 112 119
e 112 120
e 112 126
e 112 160
e 112 170
e 112 171
e 112 186
e 112 191
e 112 192
e 112 195
e 112 196
e 112 199
e 112 200
e 112 209
e 112 233
e 112 248
e 113 116
e 113 148
e 113 177
e 113 183
e 113 190
e 113 194
e 113 244
e 114 155
e 114 166
e 114 175
e 114 198
e 114 222
e 114 234
e 115 118
e 115 129
e 115 147
e 115 179
e 115 182
e 115 210
e 115 211
e 115 222
e 115 223
e 115 227
e 115 238
e 115 248
e 116 159
e 116 161
e 116 169
e 116 179
e 116 211
e 116 212
e 116 213
e 116 226
e 116 237
e 117 120
e 117 132
e 117 137
e 117 145
e 117 151
e 117 156
e 117 166
e 117 170
e 117 180
e 117 203
e 117 228
e 118 124
e 118 138
e 118 158
e 118 162
e 118 200
e 118 203
e 118 227
e 118 237
e 118 241
e 119 134
e 119 148
e 119 180
e 120 124
e 120 130
e 120 141
e 120 146
e 120 169
e 120 172
e 120 188
e 120 198
e 120 212
e 120 228
e 120 241
e 120 243
e 120 249
e 121 204
e 121 221
e 122 134
e 122 152
e 122 173
e 122 179
e 122 189
e 122 214
e 122 216
e 122 228
e 123 137
e 123 143
e 123 183
e 123 197
e 123 203
e 123 210
e 123 223
e 123 224
e 123 232
e 123 236
e 124 126
e 124 140
e 124 176
e 124 184
e 124 196
e 124 197
e 124 205
e 125 126
e 125 152
e 126 127
e 126 142
e 126 147
e 126 153
e 126 162
e 126 167
e 126 169
e 126 192
e 126 197
e 126 225
e 127 141
e 127 144
e 127 153
e 127 158
e 127 159
e 127 162
e 127 190
e 127 216
e 128 146
e 128 155
e 128 165
e 128 247
e 129 188
e 129 208
e 129 218
e 129 227
e 129 228
e 129 230
e 129 241
e 130 162
e 130 171
e 130 188
e 130 206
e 130 239
e 130 248
e 131 143
e 131 163
e 131 187
e 131 218
e 131 221
e 131 226
e 131 237
e 131 239
e 132 136
e 132 157
e 132 186
e 132 217
e 132 240
e 132 244
e 133 174
e 133 176
e 133 179
e 133 192
e 133 207
e 134 145
e 134 152
e 134 159
e 134 174
e 134 178
e 134 180
e 134 186
e 134 203
e 134 219
e 134 227
e 134 241
e 135 154
e 135 157
e 135 162
e 135 179
e 135 180
e 135 196
e 135 219
e 135 226
e 135 245
e 136 176
e 136 184
e 136 185
e 136 188
e 136 197
e 136 225
e 136 246
e 137 150
e 137 159
e 137 200
e 137 217
e 137 227
e 138 139
e 138 145
e 138 154
e 138 176
e 138 191
e 138 194
e 138 199
e 138 224
e 139 165
e 139 191
e 139 199
e 139 200
e 139 201
e 139 206
e 139 214
e 139 215
e 139 239
e 139 243
e 139 247
e 139 248
e 140 141
e 141 165
e 141 171
e 141 184
e 141 186
e 141 190
e 141 194
e 141 197
e 142 163
e 142 170
e 142 187
e 142 222
e 143 148
e 143 166
e 143 181
e 143 183
e 143 187
e 143 195
e 143 198
e 143 220
e 143 246
e 144 181
e 144 209
e 144 215
e 144 224
e 145 156
e 145 169
e 145 177
e 145 207
e 145 211
e 145 226
e 146 156
e 146 157
e 146 216
e 146 223
e 146 229
e 146 241
e 147 150
e 147 198
e 147 213
e 147 217
e 147 238
e 147 245
e 148 163
e 148 165
e 148 175
e 148 193
e 148 196
e 148 207
e 148 232
e 149 154
e 149 235
e 150 151
e 150 189
e 150 231
e 150 246
e 151 153
e 151 155
e 151 160
e 152 166
e 153 158
e 153 160
e 153 197
e 153 238
e 153 244
e 154 201
e 154 203
e 154 204
e 154 205
e 154 232
e 154 235
e 154 236
e 155 163
e 155 205
e 155 206
e 155 208
e 155 229
e 156 201
e 156 213
e 156 227
e 157 172
e 157 180
e 157 193
e 157 197
e 157 199
e 157 231
e 157 233
e 158 231
e 158 244
e 158 248
e 159 172
e 159 176
e 159 210
e 159 237
e 159 246
e 160 183
e 160 194
e 160 204
e 160 249
e 161 185
e 161 247
e 162 172
e 162 203
e 162 206
e 162 228
e 162 234
e 163 207
e 163 215
e 163 239
e 163 241
e 164 190
e 164 200
e 164 222
e 164 224
e 165 168
e 165 171
e 165 201
e 165 232
e 165 233
e 166 170
e 166 172
e 166 197
e 166 213
e 167 168
e 167 191
e 167 203
e 167 226
e 167 235
e 169 205
e 169 223
e 169 245
e 171 197
e 171 200
e 171 215
e 171 246
e 172 176
e 172 239
e 173 189
e 173 201
e 173 205
e 174 190
e 174 206
e 174 225
e 175 190
e 176 191
e 176 212
e 176 223
e 177 185
e 177 188
e 177 214
e 177 239
e 179 209
e 179 219
e 180 225
e 180 239
e 180 243
e 181 230
e 181 242
e 182 191
e 182 218
e 183 199
e 183 219
e 183 229
e 184 190
e 184 209
e 184 213
e 184 245
e 184 249
e 185 188
e 185 189
e 185 199
e 186 198
e 186 202
e 186 206
e 187 190
e 187 198
e 187 215
e 187 230
e 188 234
e 188 242
e 189 194
e 189 212
e 189 221
e 189 246
e 190 202
e 190 240
e 191 193
e 191 202
e 191 214
e 191 240
e 192 228
e 194 210
e 194 249
e 195 208
e 195 220
e 196 227
e 197 222
e 198 210
e 198 229
e 198 244
e 198 245
e 199 204
e 199 211
e 200 219
e 200 234
e 201 207
e 201 229
e 201 230
e 202 212
e 202 225
e 202 238
e 203 223
e 203 240
e 204 207
e 204 222
e 204 231
e 205 225
e 206 214
e 207 221
e 208 216
e 208 236
e 208 239
e 208 243
e 208 244
e 209 224
e 209 226
e 210 224
e 210 244
e 211 213
e 211 230
e 211 242
e 212 216
e 212 249
e 213 221
e 213 237
e 215 240
e 216 218
e 217 222
e 218 234
e 218 236
e 220 243
e 221 243
e 226 231
e 226 233
e 226 235
e 226 245
e 228 233
e 233 244
e 233 245
e 234 244
e 236 247
e 245 247
